certificates/rado_a6_c98_N17.cnf
c Rad2 upper bound instance: x1 + 6*x2 - x3 = 98, interval [1,17]
p cnf 17 80
1 5 17 0
-1 -5 -17 0
2 6 17 0
-2 -6 -17 0
1 3 16 0
-1 -3 -16 0
3 7 17 0
-3 -7 -17 0
2 4 16 0
-2 -4 -16 0
4 8 17 0
-4 -8 -17 0
3 5 16 0
-3 -5 -16 0
5 9 17 0
-5 -9 -17 0
4 6 16 0
-4 -6 -16 0
6 10 17 0
-6 -10 -17 0
5 7 16 0
-5 -7 -16 0
7 11 17 0
-7 -11 -17 0
6 8 16 0
-6 -8 -16 0
8 12 17 0
-8 -12 -17 0
1 9 15 0
-1 -9 -15 0
7 9 16 0
-7 -9 -16 0
9 13 17 0
-9 -13 -17 0
2 10 15 0
-2 -10 -15 0
8 10 16 0
-8 -10 -16 0
10 14 17 0
-10 -14 -17 0
3 11 15 0
-3 -11 -15 0
9 11 16 0
-9 -11 -16 0
11 15 17 0
-11 -15 -17 0
4 12 15 0
-4 -12 -15 0
10 12 16 0
-10 -12 -16 0
12 16 17 0
-12 -16 -17 0
5 13 15 0
-5 -13 -15 0
11 13 16 0
-11 -13 -16 0
13 17 0
-13 -17 0
6 14 15 0
-6 -14 -15 0
12 14 16 0
-12 -14 -16 0
1 14 15 0
-1 -14 -15 0
7 15 0
-7 -15 0
13 15 16 0
-13 -15 -16 0
2 14 16 0
-2 -14 -16 0
8 15 16 0
-8 -15 -16 0
14 16 0
-14 -16 0
3 14 17 0
-3 -14 -17 0
9 15 17 0
-9 -15 -17 0
15 16 17 0
-15 -16 -17 0
