certificates/rado_a6_c98_N17.drat
-16 -17 0
-17 0
13 0
16 0
-14 0
-11 0
-15 0
3 0
10 0
7 0
0
